TCS_Benchmarks/redos_fix/snort1_output_distinct_2552_2551_24_0.smt2
(set-logic QF_S)
(declare-const x String)
(assert (str.in.re x (re.inter  (re.++ (re.* (re.comp  (re.union  (str.to_re "\u{0A}")  (str.to_re "\u{0D}"))) ) (re.* (re.comp  (re.union  (str.to_re "\u{0A}")  (str.to_re "\u{0D}"))) ))  (re.++ (re.* (re.comp  (re.union  (str.to_re "\u{0A}")  (str.to_re "\u{0D}"))) ) (re.++  (re.++  (re.union  (str.to.re "\u{62}")  (str.to.re "\u{42}")) (re.++  (re.union  (str.to.re "\u{6c}")  (str.to.re "\u{4c}")) (re.++  (re.union  (str.to.re "\u{61}")  (str.to.re "\u{41}")) (re.++  (re.union  (str.to.re "\u{63}")  (str.to.re "\u{43}"))  (re.union  (str.to.re "\u{6b}")  (str.to.re "\u{4b}")))))) (re.* (re.comp  (re.union  (str.to_re "\u{0A}")  (str.to_re "\u{0D}"))) ))) )))
(check-sat)
(get-model)