TCS_Benchmarks/redos_fix/snort1_output_distinct_2552_2551_24_0.txt
([^\n\r]*)([^\n\r]*)
([^\n\r]*)([bB][lL][aA][cC][kK])([^\n\r]*)